10517.22,57.83,71.74
10230.74,59.45,73.75
11471.53,53.02,65.77
10852.23,56.05,69.52
11390.28,53.4,66.24
10846.43,56.08,69.56
10908.09,55.76,69.17
11281.15,53.91,66.88
9776.13,62.21,77.18
10131.27,60.03,74.47
11148.31,54.56,67.68
10747.8,56.59,70.2
9848.03,61.76,76.61
11055.4,55.02,68.25
10644.98,57.14,70.88
11363.17,53.53,66.4
9313.39,65.3,81.01
9416.31,64.59,80.13
9747.94,62.39,77.4
9428.11,64.51,80.02
